lbl,CUST NO.,READY TIME,XCOORD.,YCOORD.,DEMAND,DUE DATE,SERVICE TIME
17,72,80,112,174,20,90,10
17,309,87,108,187,22,97,10
17,377,90,125,180,1,100,10
17,350,165,126,199,18,175,10
17,16,204,97,192,23,214,10
17,75,206,124,191,24,216,10
17,380,212,98,193,27,222,10
17,127,240,104,176,19,250,10
17,171,263,114,183,35,273,10
17,293,416,109,197,15,426,10
17,367,461,110,184,10,471,10
17,37,513,111,189,3,523,10
